(set-logic HORN)

(declare-datatypes ((node 0)) (((node  (next Int) (data Int)))))
(declare-datatypes ((HeapObject 0)) (((O_Int  (getInt Int)) (O_UInt  (getUInt Int)) (O_Addr  (getAddr Int)) (O_node  (getnode node)) (defObj ))))
(declare-datatypes ((Heap 0)) (((HeapCtor  (HeapSize Int) (HeapContents (Array Int HeapObject))))))

(declare-fun |inv_main51| ( Heap Int Int Int Int Int Int Int Int Int Int ) Bool)
(declare-fun |inv_main69| ( Heap Int Int Int Int Int Int Int Int Int Int Int ) Bool)
(declare-fun |inv_main72| ( Heap Int Int Int Int Int Int Int Int Int Int Int ) Bool)
(declare-fun |inv_main28| ( Heap Int Int Int Int Int Int Int Int ) Bool)
(declare-fun |inv_main4| ( Heap Int Int ) Bool)
(declare-fun |inv_main78| ( Heap Int Int Int Int Int Int Int ) Bool)
(declare-fun |inv_main91| ( Heap Int Int Int Int Int Int Int ) Bool)
(declare-fun |inv_main103| ( Heap Int Int Int Int Int Int Int Int ) Bool)
(declare-fun |inv_main67| ( Heap Int Int Int Int Int Int Int Int Int Int Int ) Bool)
(declare-fun |inv_main21| ( Heap Int Int Int Int Int Int ) Bool)
(declare-fun |inv_main88| ( Heap Int Int Int Int Int Int Int ) Bool)
(declare-fun |inv_main12| ( Heap Int Int Int Int Int Int ) Bool)
(declare-fun |inv_main107| ( Heap Int Int Int Int Int Int Int Int Int ) Bool)
(declare-fun |inv_main71| ( Heap Int Int Int Int Int Int Int Int Int Int Int ) Bool)
(declare-fun |inv_main83| ( Heap Int Int Int Int Int Int Int ) Bool)
(declare-fun |inv_main73| ( Heap Int Int Int Int Int Int Int Int Int Int Int ) Bool)
(declare-fun |CHC_COMP_FALSE| ( ) Bool)
(declare-fun |inv_main110| ( Heap Int Int Int Int Int Int Int ) Bool)
(declare-fun |inv_main34| ( Heap Int Int Int Int Int Int Int Int ) Bool)
(declare-fun |inv_main18| ( Heap Int Int Int Int Int Int ) Bool)
(declare-fun |inv_main36| ( Heap Int Int Int Int Int Int Int ) Bool)
(declare-fun |inv_main76| ( Heap Int Int Int Int Int Int Int ) Bool)
(declare-fun |inv_main64| ( Heap Int Int Int Int Int Int Int Int Int Int Int ) Bool)
(declare-fun |inv_main61| ( Heap Int Int Int Int Int Int Int Int Int Int Int ) Bool)
(declare-fun |inv_main22| ( Heap Int Int Int Int Int Int ) Bool)
(declare-fun |inv_main57| ( Heap Int Int Int Int Int Int Int Int Int Int ) Bool)
(declare-fun |inv_main75| ( Heap Int Int Int Int Int Int Int ) Bool)

(assert
  (forall ( (A Heap) (v_1 Int) (v_2 Int) ) 
    (=>
      (and
        (and (= A (HeapCtor 0 ((as const (Array Int HeapObject)) defObj)))
     (= 2 v_1)
     (= 1 v_2))
      )
      (inv_main4 A v_1 v_2)
    )
  )
)
(assert
  (forall ( (A Int) (B Int) (C Int) (D Int) (E Int) (F Heap) (G Int) (H Int) (I Int) (J Int) (K Int) (L Int) (M Int) (N Int) (O Int) (P Int) (Q Int) (R Heap) ) 
    (=>
      (and
        (inv_main78 R Q P O N M L K)
        (let ((a!1 (ite (and (not (<= L 0)) (>= (HeapSize R) L))
                (select (HeapContents R) L)
                defObj)))
  (and (= J (next (getnode a!1)))
       (not (= J I))
       (= I O)
       (not (= H (+ (- 1) G)))
       (= H K)
       (= G M)
       (= E Q)
       (= D P)
       (= C N)
       (= B L)
       (= F R)
       ((_ is O_node) a!1)
       (= A (+ 1 H))))
      )
      (inv_main75 F E D I C G J A)
    )
  )
)
(assert
  (forall ( (A Int) (B Int) (C Int) (D Int) (E Int) (F Int) (G Int) (H Int) (I Heap) (J Int) (K Int) (L Int) (M Int) (N Int) (O Int) (P Int) (Q Int) (R Int) (S Int) (T Int) (U Heap) (v_21 Int) (v_22 Int) ) 
    (=>
      (and
        (inv_main69 U T S R Q P O N M L K J)
        (let ((a!1 (ite (and (not (<= L 0)) (>= (HeapSize U) L))
                (select (HeapContents U) L)
                defObj)))
(let ((a!2 (O_node (node J (data (getnode a!1))))))
(let ((a!3 (ite (and (not (<= L 0)) (>= (HeapSize U) L))
                (HeapCtor (HeapSize U) (store (HeapContents U) L a!2))
                U)))
  (and (= C O)
       (= B N)
       (= A M)
       (= H T)
       (= G S)
       (= F R)
       (= E Q)
       (= I a!3)
       ((_ is O_node) a!1)
       (= D P)
       (= v_21 F)
       (= 0 v_22)))))
      )
      (inv_main75 I H G F E D v_21 v_22)
    )
  )
)
(assert
  (forall ( (A Int) (B Int) (C Int) (D Int) (E Int) (F Int) (G Int) (H Int) (I Int) (J Int) (K Int) (L Heap) (M Int) (N Int) (O Int) (P Int) (Q Int) (R Int) (S Int) (T Int) (U Int) (V Int) (W Int) (X Heap) (v_24 Int) (v_25 Int) ) 
    (=>
      (and
        (inv_main73 X W V U T S R Q P O N M)
        (let ((a!1 (ite (and (not (<= U 0)) (>= (HeapSize X) U))
                (select (HeapContents X) U)
                defObj)))
(let ((a!2 (O_node (node O (data (getnode a!1))))))
(let ((a!3 (ite (and (not (<= U 0)) (>= (HeapSize X) U))
                (HeapCtor (HeapSize X) (store (HeapContents X) U a!2))
                X)))
  (and (= B N)
       (= A M)
       (= G S)
       (= F R)
       (= E Q)
       (= D P)
       (= K W)
       (= J V)
       (= I U)
       (= H T)
       (= L a!3)
       ((_ is O_node) a!1)
       (= C O)
       (= v_24 C)
       (= 0 v_25)))))
      )
      (inv_main75 L K J C H G v_24 v_25)
    )
  )
)
(assert
  (forall ( (A Int) (B Int) (C Int) (D Int) (E Int) (F Int) (G Int) (H Int) (I Int) (J Int) (K Int) (L Heap) (M Int) (N Int) (O Int) (P Int) (Q Int) (R Int) (S Int) (T Int) (U Int) (V Int) (W Int) (X Heap) (v_24 Int) (v_25 Int) ) 
    (=>
      (and
        (inv_main72 X W V U T S R Q P O N M)
        (let ((a!1 (ite (and (not (<= O 0)) (>= (HeapSize X) O))
                (select (HeapContents X) O)
                defObj)))
(let ((a!2 (O_node (node O (data (getnode a!1))))))
(let ((a!3 (ite (and (not (<= O 0)) (>= (HeapSize X) O))
                (HeapCtor (HeapSize X) (store (HeapContents X) O a!2))
                X)))
  (and (= B N)
       (= A M)
       (= G S)
       (= F R)
       (= E Q)
       (= D P)
       (= K W)
       (= J V)
       (= I U)
       (= H T)
       (= L a!3)
       ((_ is O_node) a!1)
       (= C O)
       (= v_24 C)
       (= 0 v_25)))))
      )
      (inv_main75 L K J C H G v_24 v_25)
    )
  )
)
(assert
  (forall ( (A Int) (B Int) (C Int) (D Int) (E Int) (F Int) (G Int) (H Heap) (I Int) (J Int) (K Int) (L Int) (M Int) (N Int) (O Int) (P Int) (Q Int) (R Int) (S Heap) ) 
    (=>
      (and
        (inv_main103 S R Q P O N M L K)
        (let ((a!1 (ite (and (not (<= K 0)) (>= (HeapSize S) K))
                (select (HeapContents S) K)
                defObj)))
  (and (= B M)
       (= A L)
       (= J (next (getnode a!1)))
       (not (= J I))
       (= I K)
       (= F Q)
       (= E P)
       (= D O)
       (= C N)
       (= H S)
       ((_ is O_node) a!1)
       (= G R)))
      )
      (inv_main107 H G F E D C B A I J)
    )
  )
)
(assert
  (forall ( (A Int) (B Int) (C Int) (D Int) (E Int) (F Int) (G Int) (H Int) (I Heap) (J Int) (K Int) (L Int) (M Int) (N Int) (O Int) (P Int) (Q Int) (R Int) (S Int) (T Heap) (U Int) (V Int) (W Int) (X Int) (Y Int) (Z Int) (A1 Int) (B1 Int) (C1 Int) (D1 Int) (E1 Int) (F1 Heap) ) 
    (=>
      (and
        (inv_main107 F1 E1 D1 C1 B1 A1 Z Y X W)
        (let ((a!1 (ite (and (not (<= W 0)) (>= (HeapSize F1) W))
                (select (HeapContents F1) W)
                defObj))
      (a!2 (ite (and (not (<= K 0)) (>= (HeapSize T) K))
                (HeapCtor (HeapSize T) (store (HeapContents T) K defObj))
                T)))
  (and (= G R)
       (= F Q)
       (= E P)
       (= D O)
       (= C N)
       (= B M)
       (= A K)
       (= K W)
       (= J (next (getnode a!1)))
       (= O A1)
       (= N Z)
       (= M Y)
       (= L X)
       (= V J)
       (not (= V U))
       (= U L)
       (= S E1)
       (= R D1)
       (= Q C1)
       (= P B1)
       (= I a!2)
       (= T F1)
       ((_ is O_node) a!1)
       (= H S)))
      )
      (inv_main107 I H G F E D C B U V)
    )
  )
)
(assert
  (forall ( (A Heap) (B Int) (C Int) (D Int) (E Int) (F Int) (G Int) (H Int) (I Int) (J Int) (K Int) (L Int) (M Heap) ) 
    (=>
      (and
        (inv_main67 M L K J I H G F E D C B)
        (let ((a!1 (ite (and (not (<= C 0)) (>= (HeapSize M) C))
                (select (HeapContents M) C)
                defObj)))
(let ((a!2 (O_node (node D (data (getnode a!1))))))
(let ((a!3 (ite (and (not (<= C 0)) (>= (HeapSize M) C))
                (HeapCtor (HeapSize M) (store (HeapContents M) C a!2))
                M)))
  (and ((_ is O_node) a!1) (= A a!3)))))
      )
      (inv_main69 A L K J I H G F E D C B)
    )
  )
)
(assert
  (forall ( (A Int) (B Int) (C Int) (D Int) (E Int) (F Int) (G Int) (H Int) (I Int) (J Int) (K Int) (L Heap) ) 
    (=>
      (and
        (inv_main61 L K J I H G F E D C B A)
        (and (= B 0) (not (<= 1 D)) (not (= I 0)))
      )
      (inv_main71 L K J I H G F E D C B A)
    )
  )
)
(assert
  (forall ( (A Int) (B Int) (C Int) (D Int) (E Int) (F Int) (G Int) (H Heap) ) 
    (=>
      (and
        (inv_main88 H G F E D C B A)
        (let ((a!1 (ite (and (not (<= B 0)) (>= (HeapSize H) B))
                (select (HeapContents H) B)
                defObj)))
  (and ((_ is O_node) a!1) (= F (data (getnode a!1)))))
      )
      (inv_main91 H G F E D C B A)
    )
  )
)
(assert
  (forall ( (A Int) (B Int) (C Int) (D Int) (E Int) (F Int) (G Int) (H node) (I Heap) (J Int) (K Int) (L Int) (M Int) (N Int) (O Int) (P Int) (Q Heap) ) 
    (=>
      (and
        (inv_main21 Q P O N M L K)
        (let ((a!1 (HeapCtor (+ 1 (HeapSize Q))
                     (store (HeapContents Q) (+ 1 (HeapSize Q)) (O_node H)))))
  (and (= E N)
       (= J (+ 1 (HeapSize Q)))
       (= G P)
       (= F O)
       (= D M)
       (= C L)
       (= B K)
       (= A M)
       (= I a!1)
       (<= 2 N)
       (not (= 0 J))))
      )
      (inv_main28 I G F E D C B A J)
    )
  )
)
(assert
  (forall ( (A Int) (B Int) (C Int) (D Int) (E Int) (F node) (G Heap) (H Int) (I Int) (J Int) (K Heap) ) 
    (=>
      (and
        (inv_main4 K J I)
        (let ((a!1 (HeapCtor (+ 1 (HeapSize K))
                     (store (HeapContents K) (+ 1 (HeapSize K)) (O_node F)))))
  (and (= H (+ 1 (HeapSize K)))
       (= E J)
       (= D I)
       (= C J)
       (= B I)
       (= A I)
       (= G a!1)
       (not (= 0 H))))
      )
      (inv_main12 G E D C B A H)
    )
  )
)
(assert
  (forall ( (A Int) (B Int) (C Int) (D Int) (E Int) (F Int) (G Int) (H Int) (I Int) (J Heap) (K Int) (L Int) (M Int) (N Int) (O Int) (P Int) (Q Int) (R Heap) ) 
    (=>
      (and
        (inv_main83 R Q P O N M L K)
        (let ((a!1 (ite (and (not (<= L 0)) (>= (HeapSize R) L))
                (select (HeapContents R) L)
                defObj)))
  (and (= A (+ 1 C))
       (= I Q)
       (= H P)
       (= G O)
       (= E M)
       (= D L)
       (= C K)
       (= B (next (getnode a!1)))
       (= J R)
       ((_ is O_node) a!1)
       (= F N)))
      )
      (inv_main88 J I H G F E B A)
    )
  )
)
(assert
  (forall ( (A Int) (B Int) (C Int) (D Int) (E Int) (F Int) (G Int) (H Heap) (I Int) (J Int) (K Int) (L Int) (M Int) (N Int) (O Int) (P Int) (Q Int) (R Heap) ) 
    (=>
      (and
        (inv_main91 R Q P O N M L K)
        (let ((a!1 (ite (and (not (<= L 0)) (>= (HeapSize R) L))
                (select (HeapContents R) L)
                defObj)))
  (and (= A (+ 1 B))
       (= J (next (getnode a!1)))
       (not (= J I))
       (= I O)
       (= G Q)
       (= E N)
       (= D M)
       (= C L)
       (= B K)
       (= H R)
       ((_ is O_node) a!1)
       (= F P)))
      )
      (inv_main88 H G F I E D J A)
    )
  )
)
(assert
  (forall ( (A Heap) (B Int) (C Int) (D Int) (E Int) (F Int) (G Int) (H Heap) ) 
    (=>
      (and
        (inv_main12 H G F E D C B)
        (let ((a!1 (ite (and (not (<= B 0)) (>= (HeapSize H) B))
                (select (HeapContents H) B)
                defObj)))
(let ((a!2 (O_node (node 0 (data (getnode a!1))))))
(let ((a!3 (ite (and (not (<= B 0)) (>= (HeapSize H) B))
                (HeapCtor (HeapSize H) (store (HeapContents H) B a!2))
                H)))
  (and ((_ is O_node) a!1) (= A a!3)))))
      )
      (inv_main18 A G F E D C B)
    )
  )
)
(assert
  (forall ( (A Int) (B Int) (C Int) (D Int) (E Int) (F Int) (G Heap) (H Int) (I Int) (J Int) (K Int) (L Int) (M Int) (N Int) (O Int) (P Int) (Q Int) (R Int) (S Int) (T Int) (U Int) (V node) (W Heap) (X Heap) (Y Int) (Z Int) (A1 Int) (B1 Int) (C1 Int) (D1 Int) (E1 Int) (F1 Heap) (G1 Int) ) 
    (=>
      (and
        (inv_main22 F1 E1 D1 C1 B1 A1 Z)
        (let ((a!1 (HeapCtor (+ 1 (HeapSize W))
                     (store (HeapContents W) (+ 1 (HeapSize W)) (O_node V))))
      (a!2 (ite (and (not (<= Z 0)) (>= (HeapSize F1) Z))
                (select (HeapContents F1) Z)
                defObj))
      (a!5 (not (<= 1 (+ F (* (- 2) G1)))))
      (a!6 (not (<= 1 (+ (* (- 1) F) (* 2 G1))))))
(let ((a!3 (O_node (node A1 (data (getnode a!2))))))
(let ((a!4 (ite (and (not (<= Z 0)) (>= (HeapSize F1) Z))
                (HeapCtor (HeapSize F1) (store (HeapContents F1) Z a!3))
                F1)))
  (and (= A Z)
       (= I L)
       (= H N)
       (= F E1)
       (= E D1)
       (= D A1)
       (= C C1)
       (= B B1)
       (= U T)
       (= L G1)
       (= K 3)
       (= J N)
       (= P D)
       (= O N)
       (= N 5)
       (= M L)
       (= Y (+ 1 (HeapSize W)))
       (= T F)
       (= S R)
       (= R E)
       (= Q P)
       (= X a!1)
       (= G a!4)
       (= W G)
       ((_ is O_node) a!2)
       (<= (- 1) (+ (* (- 1) F) (* 2 G1)))
       (<= (- 1) (+ F (* (- 2) G1)))
       (or a!5 (<= 1 F))
       (or a!6 (<= F (- 1)))
       (not (= 0 Y))))))
      )
      (inv_main51 X U S Q O M K J I H Y)
    )
  )
)
(assert
  (forall ( (A Int) (B Int) (C Int) (D Int) (E Int) (F Heap) (G Int) (H Int) (I Int) (J Int) (K Int) (L Int) (M Int) (N Int) (O Int) (P Int) (Q Int) (R Heap) (v_18 Int) ) 
    (=>
      (and
        (inv_main91 R Q P O N M L K)
        (let ((a!1 (ite (and (not (<= L 0)) (>= (HeapSize R) L))
                (select (HeapContents R) L)
                defObj)))
  (and (= A (+ 1 I))
       (= J O)
       (= I K)
       (= I H)
       (= H Q)
       (= G (next (getnode a!1)))
       (= G J)
       (= E P)
       (= D N)
       (= C M)
       (= B L)
       (= F R)
       ((_ is O_node) a!1)
       (not (= 0 J))
       (= v_18 J)))
      )
      (inv_main103 F H E J D C G A v_18)
    )
  )
)
(assert
  (forall ( (A Heap) (B Int) (C Int) (D Int) (E Int) (F Int) (G Int) (H Int) (I Int) (J Int) (K Int) (L Heap) ) 
    (=>
      (and
        (inv_main51 L K J I H G F E D C B)
        (let ((a!1 (ite (and (not (<= B 0)) (>= (HeapSize L) B))
                (select (HeapContents L) B)
                defObj)))
(let ((a!2 (O_node (node 0 (data (getnode a!1))))))
(let ((a!3 (ite (and (not (<= B 0)) (>= (HeapSize L) B))
                (HeapCtor (HeapSize L) (store (HeapContents L) B a!2))
                L)))
  (and ((_ is O_node) a!1) (= A a!3)))))
      )
      (inv_main57 A K J I H G F E D C B)
    )
  )
)
(assert
  (forall ( (A Int) (B Int) (C Int) (D Int) (E Int) (F Int) (G Heap) ) 
    (=>
      (and
        (inv_main21 G F E D C B A)
        (not (<= 2 D))
      )
      (inv_main22 G F E D C B A)
    )
  )
)
(assert
  (forall ( (A Int) (B Int) (C Int) (D Int) (E Int) (F Int) (G Int) (H Int) (I Int) (J Int) (K Int) (L Heap) ) 
    (=>
      (and
        (inv_main61 L K J I H G F E D C B A)
        (and (= B 0) (not (<= 1 D)) (= I 0))
      )
      (inv_main72 L K J I H G F E D C B A)
    )
  )
)
(assert
  (forall ( (A Heap) (B Int) (C Int) (D Int) (E Int) (F Int) (G Int) (H Int) (I Int) (J Int) (K Int) (L Int) (M Heap) ) 
    (=>
      (and
        (inv_main71 M L K J I H G F E D C B)
        (let ((a!1 (ite (and (not (<= D 0)) (>= (HeapSize M) D))
                (select (HeapContents M) D)
                defObj)))
(let ((a!2 (O_node (node J (data (getnode a!1))))))
(let ((a!3 (ite (and (not (<= D 0)) (>= (HeapSize M) D))
                (HeapCtor (HeapSize M) (store (HeapContents M) D a!2))
                M)))
  (and ((_ is O_node) a!1) (= A a!3)))))
      )
      (inv_main73 A L K J I H G F E D C B)
    )
  )
)
(assert
  (forall ( (A Heap) (B Int) (C Int) (D Int) (E Int) (F Int) (G Int) (H Int) (I Int) (J Heap) ) 
    (=>
      (and
        (inv_main28 J I H G F E D C B)
        (let ((a!1 (ite (and (not (<= B 0)) (>= (HeapSize J) B))
                (select (HeapContents J) B)
                defObj)))
(let ((a!2 (O_node (node 0 (data (getnode a!1))))))
(let ((a!3 (ite (and (not (<= B 0)) (>= (HeapSize J) B))
                (HeapCtor (HeapSize J) (store (HeapContents J) B a!2))
                J)))
  (and ((_ is O_node) a!1) (= A a!3)))))
      )
      (inv_main34 A I H G F E D C B)
    )
  )
)
(assert
  (forall ( (A Int) (B Int) (C Int) (D Int) (E Int) (F Int) (G Int) (H Heap) ) 
    (=>
      (and
        (inv_main75 H G F E D C B A)
        (let ((a!1 (ite (and (not (<= B 0)) (>= (HeapSize H) B))
                (select (HeapContents H) B)
                defObj)))
  (and ((_ is O_node) a!1) (= F (data (getnode a!1)))))
      )
      (inv_main78 H G F E D C B A)
    )
  )
)
(assert
  (forall ( (A Int) (B Int) (C Int) (D Int) (E Int) (F Int) (G Int) (H Int) (I Int) (J Int) (K Int) (L Heap) (v_12 Int) ) 
    (=>
      (and
        (inv_main61 L K J I H G F E D C B A)
        (and (<= 1 D) (= v_12 A))
      )
      (inv_main64 L K J I H G F E D C A v_12)
    )
  )
)
(assert
  (forall ( (A Int) (B Int) (C Int) (D Int) (E Int) (F Heap) (G Int) (H Int) (I Int) (J Int) (K Int) (L Int) (M Int) (N Int) (O Int) (P Int) (Q Int) (R Heap) ) 
    (=>
      (and
        (inv_main78 R Q P O N M L K)
        (let ((a!1 (ite (and (not (<= L 0)) (>= (HeapSize R) L))
                (select (HeapContents R) L)
                defObj)))
  (and (= J (next (getnode a!1)))
       (= I O)
       (= H K)
       (= G M)
       (= E Q)
       (= D P)
       (= C N)
       (= B L)
       (= F R)
       ((_ is O_node) a!1)
       (or (= J I) (= H (+ (- 1) G)))
       (= A (+ 1 H))))
      )
      (inv_main76 F E D I C G J A)
    )
  )
)
(assert
  (forall ( (A Int) (B Int) (C Int) (D Int) (E Int) (F Int) (G Int) (H Heap) ) 
    (=>
      (and
        (inv_main76 H G F E D C B A)
        (let ((a!1 (ite (and (not (<= B 0)) (>= (HeapSize H) B))
                (select (HeapContents H) B)
                defObj)))
  (and ((_ is O_node) a!1) (= D (data (getnode a!1)))))
      )
      (inv_main83 H G F E D C B A)
    )
  )
)
(assert
  (forall ( (A Int) (B Int) (C Int) (D Int) (E Int) (F Int) (G Int) (H Heap) ) 
    (=>
      (and
        (inv_main75 H G F E D C B A)
        (let ((a!1 (ite (and (not (<= B 0)) (>= (HeapSize H) B))
                (select (HeapContents H) B)
                defObj)))
(let ((a!2 (not (= F (data (getnode a!1))))))
  (and ((_ is O_node) a!1) a!2)))
      )
      (inv_main110 H G F E D C B A)
    )
  )
)
(assert
  (forall ( (A Int) (B Int) (C Int) (D Int) (E Int) (F Int) (G Int) (H Heap) ) 
    (=>
      (and
        (inv_main76 H G F E D C B A)
        (let ((a!1 (ite (and (not (<= B 0)) (>= (HeapSize H) B))
                (select (HeapContents H) B)
                defObj)))
(let ((a!2 (not (= D (data (getnode a!1))))))
  (and ((_ is O_node) a!1) a!2)))
      )
      (inv_main110 H G F E D C B A)
    )
  )
)
(assert
  (forall ( (A Int) (B Int) (C Int) (D Int) (E Int) (F Int) (G Int) (H Heap) ) 
    (=>
      (and
        (inv_main88 H G F E D C B A)
        (let ((a!1 (ite (and (not (<= B 0)) (>= (HeapSize H) B))
                (select (HeapContents H) B)
                defObj)))
(let ((a!2 (not (= F (data (getnode a!1))))))
  (and ((_ is O_node) a!1) a!2)))
      )
      (inv_main110 H G F E D C B A)
    )
  )
)
(assert
  (forall ( (A Int) (B Int) (C Int) (D Int) (E Int) (F Heap) (G Int) (H Int) (I Int) (J Int) (K Int) (L Int) (M Int) (N Int) (O Int) (P Int) (Q Int) (R Heap) ) 
    (=>
      (and
        (inv_main91 R Q P O N M L K)
        (let ((a!1 (ite (and (not (<= L 0)) (>= (HeapSize R) L))
                (select (HeapContents R) L)
                defObj)))
  (and (= J K)
       (not (= J I))
       (= I Q)
       (= H (next (getnode a!1)))
       (= H G)
       (= G O)
       (= E P)
       (= D N)
       (= C M)
       (= B L)
       (= F R)
       ((_ is O_node) a!1)
       (= A (+ 1 J))))
      )
      (inv_main110 F I E G D C H A)
    )
  )
)
(assert
  (forall ( (A Int) (B Int) (C Int) (D Int) (E Int) (F Int) (G Int) (H Int) (I Heap) (J Int) (K Int) (L Int) (M Int) (N Int) (O Int) (P Int) (Q Int) (R Heap) ) 
    (=>
      (and
        (inv_main34 R Q P O N M L K J)
        (let ((a!1 (ite (and (not (<= J 0)) (>= (HeapSize R) J))
                (select (HeapContents R) J)
                defObj)))
(let ((a!2 (O_node (node (next (getnode a!1)) K))))
(let ((a!3 (ite (and (not (<= J 0)) (>= (HeapSize R) J))
                (HeapCtor (HeapSize R) (store (HeapContents R) J a!2))
                R)))
  (and (= A J)
       (= H Q)
       (= G P)
       (= E N)
       (= D M)
       (= C L)
       (= B K)
       (= I a!3)
       ((_ is O_node) a!1)
       (= F O)))))
      )
      (inv_main36 I H G F E D C A)
    )
  )
)
(assert
  (forall ( (A Int) (B Int) (C Int) (D Int) (E Int) (F Int) (G Int) (H Int) (I Int) (J Int) (K Int) (L Int) (M Int) (N Heap) (O Int) (P Int) (Q Int) (R Int) (S Int) (T Int) (U Int) (V Int) (W Int) (X Int) (Y Int) (Z Heap) ) 
    (=>
      (and
        (inv_main64 Z Y X W V U T S R Q P O)
        (let ((a!1 (ite (and (not (<= O 0)) (>= (HeapSize Z) O))
                (select (HeapContents Z) O)
                defObj)))
  (and (= A (+ (- 1) F))
       (= E Q)
       (= D P)
       (= C O)
       (= I U)
       (= H T)
       (= G S)
       (= F R)
       (= M Y)
       (= L X)
       (= K W)
       (= J V)
       (= N Z)
       ((_ is O_node) a!1)
       (= B (next (getnode a!1)))))
      )
      (inv_main61 N M L K J I H G A E D B)
    )
  )
)
(assert
  (forall ( (A Int) (B Int) (C Int) (D Int) (E Int) (F Int) (G Int) (H Int) (I Int) (J Int) (K Int) (L Int) (M Int) (N Int) (O Int) (P Int) (Q Int) (R Int) (S Int) (T Int) (U Heap) (V Heap) (W Int) (X Int) (Y Int) (Z Int) (A1 Int) (B1 Int) (C1 Int) (D1 Int) (E1 Int) (F1 Int) (G1 Heap) (v_33 Int) ) 
    (=>
      (and
        (inv_main57 G1 F1 E1 D1 C1 B1 A1 Z Y X W)
        (let ((a!1 (ite (and (not (<= W 0)) (>= (HeapSize G1) W))
                (select (HeapContents G1) W)
                defObj)))
(let ((a!2 (O_node (node (next (getnode a!1)) X))))
(let ((a!3 (ite (and (not (<= W 0)) (>= (HeapSize G1) W))
                (HeapCtor (HeapSize G1) (store (HeapContents G1) W a!2))
                G1)))
  (and (= I A1)
       (= H G)
       (= G Z)
       (= F E)
       (= E Y)
       (= D C)
       (= C W)
       (= B 0)
       (= L K)
       (= K B1)
       (= J I)
       (= P O)
       (= O D1)
       (= N M)
       (= M C1)
       (= T S)
       (= S F1)
       (= R Q)
       (= Q E1)
       (= V U)
       (= U a!3)
       ((_ is O_node) a!1)
       (= A X)
       (= v_33 P)))))
      )
      (inv_main61 V T R P N L J H F D B v_33)
    )
  )
)
(assert
  (forall ( (A Int) (B Int) (C Int) (D Int) (E Int) (F Int) (G Int) (H Int) (I Heap) (J Int) (K Int) (L Int) (M Int) (N Int) (O Int) (P Int) (Q Heap) ) 
    (=>
      (and
        (inv_main36 Q P O N M L K J)
        (let ((a!1 (ite (and (not (<= J 0)) (>= (HeapSize Q) J))
                (select (HeapContents Q) J)
                defObj)))
(let ((a!2 (O_node (node L (data (getnode a!1))))))
(let ((a!3 (ite (and (not (<= J 0)) (>= (HeapSize Q) J))
                (HeapCtor (HeapSize Q) (store (HeapContents Q) J a!2))
                Q)))
  (and (= H P)
       (= G O)
       (= F N)
       (= D L)
       (= C K)
       (= B J)
       (= A (+ (- 1) F))
       (= I a!3)
       ((_ is O_node) a!1)
       (= E M)))))
      )
      (inv_main21 I H G A E B C)
    )
  )
)
(assert
  (forall ( (A Int) (B Int) (C Int) (D Int) (E Int) (F Int) (G Heap) (H Int) (I Int) (J Int) (K Int) (L Int) (M Int) (N Heap) (v_14 Int) ) 
    (=>
      (and
        (inv_main18 N M L K J I H)
        (let ((a!1 (ite (and (not (<= H 0)) (>= (HeapSize N) H))
                (select (HeapContents N) H)
                defObj)))
(let ((a!2 (O_node (node (next (getnode a!1)) I))))
(let ((a!3 (ite (and (not (<= H 0)) (>= (HeapSize N) H))
                (HeapCtor (HeapSize N) (store (HeapContents N) H a!2))
                N)))
  (and (= F M)
       (= E L)
       (= D K)
       (= C J)
       (= A H)
       (= G a!3)
       ((_ is O_node) a!1)
       (= B I)
       (= v_14 A)))))
      )
      (inv_main21 G F E D C A v_14)
    )
  )
)
(assert
  (forall ( (A Int) (B Int) (C Int) (D Int) (E Int) (F Int) (G Int) (H Int) (I Int) (J Int) (K Int) (L Heap) ) 
    (=>
      (and
        (inv_main61 L K J I H G F E D C B A)
        (and (not (<= 1 D)) (not (= B 0)))
      )
      (inv_main67 L K J I H G F E D C B A)
    )
  )
)
(assert
  (forall ( (A Int) (B Int) (C Int) (D Int) (E Int) (F Int) (G Heap) ) 
    (=>
      (and
        (inv_main12 G F E D C B A)
        (let ((a!1 (ite (and (not (<= A 0)) (>= (HeapSize G) A))
                (select (HeapContents G) A)
                defObj)))
  (not ((_ is O_node) a!1)))
      )
      CHC_COMP_FALSE
    )
  )
)
(assert
  (forall ( (A Int) (B Int) (C Int) (D Int) (E Int) (F Int) (G Heap) ) 
    (=>
      (and
        (inv_main18 G F E D C B A)
        (let ((a!1 (ite (and (not (<= A 0)) (>= (HeapSize G) A))
                (select (HeapContents G) A)
                defObj)))
  (not ((_ is O_node) a!1)))
      )
      CHC_COMP_FALSE
    )
  )
)
(assert
  (forall ( (A Int) (B Int) (C Int) (D Int) (E Int) (F Int) (G Int) (H Int) (I Heap) ) 
    (=>
      (and
        (inv_main28 I H G F E D C B A)
        (let ((a!1 (ite (and (not (<= A 0)) (>= (HeapSize I) A))
                (select (HeapContents I) A)
                defObj)))
  (not ((_ is O_node) a!1)))
      )
      CHC_COMP_FALSE
    )
  )
)
(assert
  (forall ( (A Int) (B Int) (C Int) (D Int) (E Int) (F Int) (G Int) (H Int) (I Heap) ) 
    (=>
      (and
        (inv_main34 I H G F E D C B A)
        (let ((a!1 (ite (and (not (<= A 0)) (>= (HeapSize I) A))
                (select (HeapContents I) A)
                defObj)))
  (not ((_ is O_node) a!1)))
      )
      CHC_COMP_FALSE
    )
  )
)
(assert
  (forall ( (A Int) (B Int) (C Int) (D Int) (E Int) (F Int) (G Int) (H Heap) ) 
    (=>
      (and
        (inv_main36 H G F E D C B A)
        (let ((a!1 (ite (and (not (<= A 0)) (>= (HeapSize H) A))
                (select (HeapContents H) A)
                defObj)))
  (not ((_ is O_node) a!1)))
      )
      CHC_COMP_FALSE
    )
  )
)
(assert
  (forall ( (A Int) (B Int) (C Int) (D Int) (E Int) (F Int) (G Heap) ) 
    (=>
      (and
        (inv_main22 G F E D C B A)
        (let ((a!1 (ite (and (not (<= A 0)) (>= (HeapSize G) A))
                (select (HeapContents G) A)
                defObj)))
  (not ((_ is O_node) a!1)))
      )
      CHC_COMP_FALSE
    )
  )
)
(assert
  (forall ( (A Int) (B Int) (C Int) (D Int) (E Int) (F Int) (G Int) (H Int) (I Int) (J Int) (K Heap) ) 
    (=>
      (and
        (inv_main51 K J I H G F E D C B A)
        (let ((a!1 (ite (and (not (<= A 0)) (>= (HeapSize K) A))
                (select (HeapContents K) A)
                defObj)))
  (not ((_ is O_node) a!1)))
      )
      CHC_COMP_FALSE
    )
  )
)
(assert
  (forall ( (A Int) (B Int) (C Int) (D Int) (E Int) (F Int) (G Int) (H Int) (I Int) (J Int) (K Heap) ) 
    (=>
      (and
        (inv_main57 K J I H G F E D C B A)
        (let ((a!1 (ite (and (not (<= A 0)) (>= (HeapSize K) A))
                (select (HeapContents K) A)
                defObj)))
  (not ((_ is O_node) a!1)))
      )
      CHC_COMP_FALSE
    )
  )
)
(assert
  (forall ( (A Int) (B Int) (C Int) (D Int) (E Int) (F Int) (G Int) (H Int) (I Int) (J Int) (K Int) (L Heap) ) 
    (=>
      (and
        (inv_main64 L K J I H G F E D C B A)
        (let ((a!1 (ite (and (not (<= A 0)) (>= (HeapSize L) A))
                (select (HeapContents L) A)
                defObj)))
  (not ((_ is O_node) a!1)))
      )
      CHC_COMP_FALSE
    )
  )
)
(assert
  (forall ( (A Int) (B Int) (C Int) (D Int) (E Int) (F Int) (G Int) (H Int) (I Int) (J Int) (K Int) (L Heap) ) 
    (=>
      (and
        (inv_main67 L K J I H G F E D C B A)
        (let ((a!1 (ite (and (not (<= B 0)) (>= (HeapSize L) B))
                (select (HeapContents L) B)
                defObj)))
  (not ((_ is O_node) a!1)))
      )
      CHC_COMP_FALSE
    )
  )
)
(assert
  (forall ( (A Int) (B Int) (C Int) (D Int) (E Int) (F Int) (G Int) (H Int) (I Int) (J Int) (K Int) (L Heap) ) 
    (=>
      (and
        (inv_main69 L K J I H G F E D C B A)
        (let ((a!1 (ite (and (not (<= C 0)) (>= (HeapSize L) C))
                (select (HeapContents L) C)
                defObj)))
  (not ((_ is O_node) a!1)))
      )
      CHC_COMP_FALSE
    )
  )
)
(assert
  (forall ( (A Int) (B Int) (C Int) (D Int) (E Int) (F Int) (G Int) (H Int) (I Int) (J Int) (K Int) (L Heap) ) 
    (=>
      (and
        (inv_main71 L K J I H G F E D C B A)
        (let ((a!1 (ite (and (not (<= C 0)) (>= (HeapSize L) C))
                (select (HeapContents L) C)
                defObj)))
  (not ((_ is O_node) a!1)))
      )
      CHC_COMP_FALSE
    )
  )
)
(assert
  (forall ( (A Int) (B Int) (C Int) (D Int) (E Int) (F Int) (G Int) (H Int) (I Int) (J Int) (K Int) (L Heap) ) 
    (=>
      (and
        (inv_main73 L K J I H G F E D C B A)
        (let ((a!1 (ite (and (not (<= I 0)) (>= (HeapSize L) I))
                (select (HeapContents L) I)
                defObj)))
  (not ((_ is O_node) a!1)))
      )
      CHC_COMP_FALSE
    )
  )
)
(assert
  (forall ( (A Int) (B Int) (C Int) (D Int) (E Int) (F Int) (G Int) (H Int) (I Int) (J Int) (K Int) (L Heap) ) 
    (=>
      (and
        (inv_main72 L K J I H G F E D C B A)
        (let ((a!1 (ite (and (not (<= C 0)) (>= (HeapSize L) C))
                (select (HeapContents L) C)
                defObj)))
  (not ((_ is O_node) a!1)))
      )
      CHC_COMP_FALSE
    )
  )
)
(assert
  (forall ( (A Int) (B Int) (C Int) (D Int) (E Int) (F Int) (G Int) (H Heap) ) 
    (=>
      (and
        (inv_main75 H G F E D C B A)
        (let ((a!1 (ite (and (not (<= B 0)) (>= (HeapSize H) B))
                (select (HeapContents H) B)
                defObj)))
  (not ((_ is O_node) a!1)))
      )
      CHC_COMP_FALSE
    )
  )
)
(assert
  (forall ( (A Int) (B Int) (C Int) (D Int) (E Int) (F Int) (G Int) (H Heap) ) 
    (=>
      (and
        (inv_main78 H G F E D C B A)
        (let ((a!1 (ite (and (not (<= B 0)) (>= (HeapSize H) B))
                (select (HeapContents H) B)
                defObj)))
  (not ((_ is O_node) a!1)))
      )
      CHC_COMP_FALSE
    )
  )
)
(assert
  (forall ( (A Int) (B Int) (C Int) (D Int) (E Int) (F Int) (G Int) (H Heap) ) 
    (=>
      (and
        (inv_main76 H G F E D C B A)
        (let ((a!1 (ite (and (not (<= B 0)) (>= (HeapSize H) B))
                (select (HeapContents H) B)
                defObj)))
  (not ((_ is O_node) a!1)))
      )
      CHC_COMP_FALSE
    )
  )
)
(assert
  (forall ( (A Int) (B Int) (C Int) (D Int) (E Int) (F Int) (G Int) (H Heap) ) 
    (=>
      (and
        (inv_main83 H G F E D C B A)
        (let ((a!1 (ite (and (not (<= B 0)) (>= (HeapSize H) B))
                (select (HeapContents H) B)
                defObj)))
  (not ((_ is O_node) a!1)))
      )
      CHC_COMP_FALSE
    )
  )
)
(assert
  (forall ( (A Int) (B Int) (C Int) (D Int) (E Int) (F Int) (G Int) (H Heap) ) 
    (=>
      (and
        (inv_main88 H G F E D C B A)
        (let ((a!1 (ite (and (not (<= B 0)) (>= (HeapSize H) B))
                (select (HeapContents H) B)
                defObj)))
  (not ((_ is O_node) a!1)))
      )
      CHC_COMP_FALSE
    )
  )
)
(assert
  (forall ( (A Int) (B Int) (C Int) (D Int) (E Int) (F Int) (G Int) (H Heap) ) 
    (=>
      (and
        (inv_main91 H G F E D C B A)
        (let ((a!1 (ite (and (not (<= B 0)) (>= (HeapSize H) B))
                (select (HeapContents H) B)
                defObj)))
  (not ((_ is O_node) a!1)))
      )
      CHC_COMP_FALSE
    )
  )
)
(assert
  (forall ( (A Int) (B Int) (C Int) (D Int) (E Int) (F Int) (G Int) (H Int) (I Heap) ) 
    (=>
      (and
        (inv_main103 I H G F E D C B A)
        (let ((a!1 (ite (and (not (<= A 0)) (>= (HeapSize I) A))
                (select (HeapContents I) A)
                defObj)))
  (not ((_ is O_node) a!1)))
      )
      CHC_COMP_FALSE
    )
  )
)
(assert
  (forall ( (A Int) (B Int) (C Int) (D Int) (E Int) (F Int) (G Int) (H Int) (I Int) (J Heap) ) 
    (=>
      (and
        (inv_main107 J I H G F E D C B A)
        (let ((a!1 (ite (and (not (<= A 0)) (>= (HeapSize J) A))
                (select (HeapContents J) A)
                defObj)))
  (not ((_ is O_node) a!1)))
      )
      CHC_COMP_FALSE
    )
  )
)
(assert
  (forall ( (A Int) (B Int) (C Int) (D Int) (E Int) (F Int) (G Int) (H Heap) ) 
    (=>
      (and
        (inv_main110 H G F E D C B A)
        true
      )
      CHC_COMP_FALSE
    )
  )
)
(assert
  (forall ( (CHC_COMP_UNUSED Bool) ) 
    (=>
      (and
        CHC_COMP_FALSE
      )
      false
    )
  )
)

(check-sat)
(exit)
